38 145
17 107
2 135
30 175
24 25
36 20
14 54
35 92
59 60
44 66
18 102
48 31
43 22
83 2
43 3
50 60
18 145
15 76
87 18
44 120
12 185
89 60
49 50
50 2
67 41
31 50
11 105
39 96
53 40
48 11
6 138
16 1
4 50
6 144
52 55
13 170
31 115
4 50
32 114
22 65
30 163
99 15
15 84
1 77
4 148
2 186
7 197
64 13
27 126
20 74
